# Objective value = 27
WA1n 0
WA1p 0
WA2n 1
WA2p 0
WB1n 0
WB1p 0
WB2n 0
WB2p 1
WC1n 0
WC1p 1
WD1n 0
WD1p 1
WD2n 0
WD2p 1
WE1n 0
WE1p 1
WE2n 0
WE2p 1
WF1n 0
WF1p 4
WG1n 5
WG1p 0
WG2n 1
WG2p 0
WT1n 0
WT1p 3
WT2n 0
WT2p 1
5 7
a 0
b 0
c 0
d 1
e 1
f 1
g 1
h 1
i 1
j 1
k 0
l 0
m 1
n 1
